cases/matpower/case5_uc.m
ipopt
ACP
[warn | PowerModels]: reversing the orientation of branch 6 (4, 3) to be consistent with other parallel branches
[warn | PowerModels]: the voltage setpoint on generator 4 does not match the value at bus 4
[warn | PowerModels]: the voltage setpoint on generator 1 does not match the value at bus 1
[warn | PowerModels]: the voltage setpoint on generator 5 does not match the value at bus 10
[warn | PowerModels]: the voltage setpoint on generator 2 does not match the value at bus 1
[warn | PowerModels]: the voltage setpoint on generator 3 does not match the value at bus 3
[info | PowerModels]: removing 1 cost terms from generator 4: [4000.0, 0.0]
[info | PowerModels]: removing 1 cost terms from generator 1: [1400.0, 0.0]
[info | PowerModels]: removing 1 cost terms from generator 5: [1000.0, 0.0]
[info | PowerModels]: removing 1 cost terms from generator 2: [1500.0, 0.0]
[info | PowerModels]: removing 1 cost terms from generator 3: [3000.0, 0.0]

******************************************************************************
This program contains Ipopt, a library for large-scale nonlinear optimization.
 Ipopt is released as open source code under the Eclipse Public License (EPL).
         For more information visit http://projects.coin-or.org/Ipopt
******************************************************************************

This is Ipopt version 3.13.2, running with linear solver mumps.
NOTE: Other linear solvers might be more efficient (see Ipopt documentation).

Number of nonzeros in equality constraint Jacobian...:       41
Number of nonzeros in inequality constraint Jacobian.:       24
Number of nonzeros in Lagrangian Hessian.............:        0

Total number of variables............................:       17
                     variables with only lower bounds:        0
                variables with lower and upper bounds:       12
                     variables with only upper bounds:        0
Total number of equality constraints.................:       13
Total number of inequality constraints...............:       12
        inequality constraints with only lower bounds:        6
   inequality constraints with lower and upper bounds:        0
        inequality constraints with only upper bounds:        6

iter    objective    inf_pr   inf_du lg(mu)  ||d||  lg(rg) alpha_du alpha_pr  ls
   0  4.1005999e+03 3.00e+00 3.50e+01  -1.0 0.00e+00    -  0.00e+00 0.00e+00   0
   1  1.1915741e+04 1.76e+00 1.04e+02  -1.0 2.55e+00    -  4.39e-03 4.13e-01h  1
   2  9.5983930e+03 1.72e+00 1.01e+02  -1.0 4.42e+01    -  2.43e-02 2.45e-02f  1
   3  8.6558063e+03 1.70e+00 9.99e+01  -1.0 3.36e+01    -  2.92e-02 1.06e-02f  1
   4  8.7940858e+03 1.63e+00 9.54e+01  -1.0 8.08e+00    -  1.82e-01 4.32e-02h  1
   5  9.0068049e+03 1.39e+00 8.04e+01  -1.0 1.17e+01    -  3.83e-01 1.45e-01h  1
   6  1.0740923e+04 8.35e-01 4.88e+01  -1.0 3.81e+00    -  2.95e-01 4.00e-01h  1
   7  1.0838742e+04 8.13e-01 6.89e+01  -1.0 2.54e+00    -  4.29e-01 2.59e-02h  1
   8  1.2061763e+04 6.58e-01 4.03e+01  -1.0 7.71e+00    -  4.62e-03 1.91e-01h  1
   9  1.2074588e+04 6.56e-01 4.02e+01  -1.0 6.00e+00    -  8.43e-02 2.45e-03h  1
iter    objective    inf_pr   inf_du lg(mu)  ||d||  lg(rg) alpha_du alpha_pr  ls
  10  1.8083351e+04 1.78e-15 5.60e+01  -1.0 2.02e+00    -  8.05e-03 1.00e+00h  1
  11  1.8079548e+04 1.78e-15 1.00e-06  -1.0 7.43e-03    -  1.00e+00 1.00e+00f  1
  12  1.8065347e+04 1.11e-16 5.96e-03  -2.5 2.99e-02    -  9.85e-01 1.00e+00f  1
  13  1.8064554e+04 8.88e-16 1.50e-09  -3.8 2.21e-03    -  1.00e+00 1.00e+00f  1
  14  1.8064530e+04 1.78e-15 1.84e-11  -5.7 5.15e-05    -  1.00e+00 1.00e+00f  1
  15  1.8064530e+04 4.44e-16 4.20e-13  -8.6 6.34e-07    -  1.00e+00 1.00e+00f  1

Number of Iterations....: 15

                                   (scaled)                 (unscaled)
Objective...............:   4.5161324281179088e+02    1.8064529712471634e+04
Dual infeasibility......:   4.1983888865719955e-13    1.6793555546287982e-11
Constraint violation....:   4.4408920985006262e-16    4.4408920985006262e-16
Complementarity.........:   2.5077015165371425e-09    1.0030806066148569e-07
Overall NLP error.......:   2.5077015165371425e-09    1.0030806066148569e-07


Number of objective function evaluations             = 16
Number of objective gradient evaluations             = 16
Number of equality constraint evaluations            = 16
Number of inequality constraint evaluations          = 16
Number of equality constraint Jacobian evaluations   = 1
Number of inequality constraint Jacobian evaluations = 1
Number of Lagrangian Hessian evaluations             = 1
Total CPU secs in IPOPT (w/o function evaluations)   =      0.285
Total CPU secs in NLP function evaluations           =      0.208

EXIT: Optimal Solution Found.
This is Ipopt version 3.13.2, running with linear solver mumps.
NOTE: Other linear solvers might be more efficient (see Ipopt documentation).

Number of nonzeros in equality constraint Jacobian...:      179
Number of nonzeros in inequality constraint Jacobian.:       52
Number of nonzeros in Lagrangian Hessian.............:      308

Total number of variables............................:       48
                     variables with only lower bounds:        0
                variables with lower and upper bounds:       43
                     variables with only upper bounds:        0
Total number of equality constraints.................:       39
Total number of inequality constraints...............:       26
        inequality constraints with only lower bounds:        6
   inequality constraints with lower and upper bounds:        0
        inequality constraints with only upper bounds:       20

iter    objective    inf_pr   inf_du lg(mu)  ||d||  lg(rg) alpha_du alpha_pr  ls
   0  4.1005999e+03 3.00e+00 2.90e+01  -1.0 0.00e+00    -  0.00e+00 0.00e+00   0
   1  1.0614053e+04 1.98e+00 8.39e+01  -1.0 2.41e+00    -  4.51e-03 3.40e-01h  1
   2  9.2879361e+03 1.87e+00 7.93e+01  -1.0 1.15e+01    -  4.11e-02 5.43e-02f  1
   3  9.1761120e+03 1.83e+00 7.71e+01  -1.0 1.07e+01    -  4.47e-01 2.27e-02f  1
   4  8.9863971e+03 1.62e+00 6.78e+01  -1.0 9.50e+00    -  3.68e-01 1.17e-01f  1
   5  1.1564506e+04 7.87e-01 3.30e+01  -1.0 6.84e+00    -  4.74e-01 5.13e-01H  1
   6  1.1639835e+04 7.72e-01 3.27e+01  -1.0 6.40e+00    -  9.81e-02 1.88e-02h  1
   7  1.4633764e+04 4.46e-01 5.57e+01  -1.0 2.25e+00    -  4.22e-03 4.23e-01h  1
   8  1.8507672e+04 1.66e-01 1.76e+02  -1.0 2.08e+00    -  5.47e-02 9.17e-01h  1
   9  1.8704263e+04 1.50e-01 3.96e+01  -1.0 1.36e+00    -  8.15e-01 8.57e-01h  1
iter    objective    inf_pr   inf_du lg(mu)  ||d||  lg(rg) alpha_du alpha_pr  ls
  10  1.8808320e+04 8.54e-03 5.22e+01  -1.0 6.86e-01    -  1.95e-01 1.00e+00h  1
  11  1.8781856e+04 6.63e-03 1.23e+00  -1.0 5.15e-01    -  1.00e+00 1.00e+00h  1
  12  1.8784234e+04 3.48e-04 2.02e-02  -1.0 3.16e-01    -  1.00e+00 1.00e+00h  1
  13  1.8748610e+04 2.76e-03 2.90e-01  -2.5 3.91e-01    -  8.88e-01 8.18e-01f  1
  14  1.8743312e+04 5.51e-05 6.66e-01  -2.5 1.66e-01    -  9.48e-01 1.00e+00h  1
  15  1.8743131e+04 3.75e-06 2.71e-02  -2.5 5.69e-02    -  1.00e+00 1.00e+00h  1
  16  1.8742273e+04 5.97e-06 9.42e-01  -3.8 2.96e-02    -  1.00e+00 9.26e-01h  1
  17  1.8742225e+04 1.57e-07 9.59e-03  -3.8 6.73e-03    -  1.00e+00 1.00e+00f  1
  18  1.8742227e+04 2.67e-10 9.07e-05  -3.8 2.49e-04    -  1.00e+00 1.00e+00h  1
  19  1.8742180e+04 1.85e-07 9.47e-02  -5.7 2.41e-03    -  1.00e+00 9.78e-01f  1
iter    objective    inf_pr   inf_du lg(mu)  ||d||  lg(rg) alpha_du alpha_pr  ls
  20  1.8742179e+04 9.73e-11 1.10e-05  -5.7 1.53e-04    -  1.00e+00 1.00e+00f  1
  21  1.8742179e+04 4.27e-12 1.91e-07  -8.6 3.27e-05    -  1.00e+00 1.00e+00h  1
  22  1.8742179e+04 2.09e-14 1.59e-12  -8.6 2.03e-08    -  1.00e+00 1.00e+00h  1

Number of Iterations....: 22

                                   (scaled)                 (unscaled)
Objective...............:   4.6855446524848088e+02    1.8742178609939234e+04
Dual infeasibility......:   1.5874074664454933e-12    6.3496298657819734e-11
Constraint violation....:   1.5543122344752192e-14    2.0872192862952943e-14
Complementarity.........:   2.5059104142948078e-09    1.0023641657179230e-07
Overall NLP error.......:   2.5059104142948078e-09    1.0023641657179230e-07


Number of objective function evaluations             = 24
Number of objective gradient evaluations             = 23
Number of equality constraint evaluations            = 24
Number of inequality constraint evaluations          = 24
Number of equality constraint Jacobian evaluations   = 23
Number of inequality constraint Jacobian evaluations = 23
Number of Lagrangian Hessian evaluations             = 22
Total CPU secs in IPOPT (w/o function evaluations)   =      1.038
Total CPU secs in NLP function evaluations           =      2.074

EXIT: Optimal Solution Found.
Time to Solution........:3.1743431091308594
